10	5	2	0
0	1	11	9	2	10	7	11	3	6	4	1	8	5	[0 0 0 0 0]	[0 0 0 0 0]	[0 0 0 0 0]	[0 0 0 0 0]	[0]	[0 0 0 0 0]	[0 0 0 0 0]	[0 0 0 0 0]	[0 0 0 0 0]	[0 0 0 0 0]	[0 0 0 0 0]
1	5	2	4	11	[0 1 0 0 1 1 0 5 0 0 4 -2 11 1 -3 12 0 3 2 -4 0 0 2 3 0]	[1 2 4 6 1]
2	5	2	4	11	[4 -6 29 19 -5 -1 12 1 6 18 4 0 9 7 2 0 12 5 4 7 4 -2 9 9 5]	[10 6 3 5 3]
3	5	2	5	11	[5 -1 0 5 -1 -5 2 0 -1 22 15 4 9 15 12 17 14 -4 7 16 0 17 10 -4 4]	[3 8 5 8 6]
4	5	4	9	10	1	11	[25 20 22 -3 0 -2 6 5 9 3 -3 -8 0 -7 26 -2 3 -2 4 7 -2 14 -3 8 12]	[-6 16 2 -5 14 3 4 -2 0 3 -5 -4 18 -4 16 -2 0 1 3 7 12 12 13 8 -4]	[-5 0 -1 -5 -6 0 -8 -10 -8 -10 0 -5 -5 -8 -5 -1 -10 -10 -2 -6 0 -4 -5 -1 -3]	[10 3 10 3 5]
5	5	3	6	3	11	[17 2 24 14 6 7 15 7 8 5 -3 -8 20 23 18 -6 0 11 4 18 3 -1 0 2 1]	[-2 -15 -19 -7 -3 -9 -7 -8 -6 -18 -19 -3 -3 -19 -10 -12 -15 -19 -9 -8 -3 -8 -4 -9 -9]	[8 6 9 7 2]
6	5	2	8	11	[5 0 2 5 2 -9 18 21 20 -3 13 3 0 1 14 -6 15 -3 29 4 12 -2 -2 1 7]	[4 10 5 10 4]
7	5	2	10	11	[6 16 19 10 14 6 21 -9 16 26 18 0 17 8 11 10 -1 9 20 -4 1 5 3 6 8]	[7 10 7 8 3]
8	5	2	11	7	[4 10 7 9 6]	[11 0 4 3 8 15 7 22 30 5 4 16 18 3 2 9 14 19 18 -6 2 0 8 0 5]
9	5	1	11	[3 6 6 10 6]
10	5	2	11	8	[2 1 6 1 7]	[-15 -27 -20 -47 -46 -12 -25 -13 -37 -3 -47 -45 -39 -33 -30 -4 -45 -33 -47 -15 -48 -40 -15 -26 -39]
11	1	0
0	1	0	0	0	0	0	0	0	0
1	1	1	4	5	2	2	2	5	5
	2	2	4	5	2	2	2	5	5
	3	4	4	5	2	2	2	5	5
	4	6	4	5	2	2	2	5	5
	5	1	4	5	2	2	2	5	5
2	1	10	3	2	4	3	1	1	3
	2	6	3	2	4	3	1	1	3
	3	3	3	2	4	3	1	1	3
	4	5	3	2	4	3	1	1	3
	5	3	3	2	4	3	1	1	3
3	1	3	5	1	1	2	5	1	4
	2	8	5	1	1	2	5	1	4
	3	5	5	1	1	2	5	1	4
	4	8	5	1	1	2	5	1	4
	5	6	5	1	1	2	5	1	4
4	1	10	2	1	1	4	2	3	1
	2	3	2	1	1	4	2	3	1
	3	10	2	1	1	4	2	3	1
	4	3	2	1	1	4	2	3	1
	5	5	2	1	1	4	2	3	1
5	1	8	2	4	4	1	2	2	3
	2	6	2	4	4	1	2	2	3
	3	9	2	4	4	1	2	2	3
	4	7	2	4	4	1	2	2	3
	5	2	2	4	4	1	2	2	3
6	1	4	4	5	4	5	3	3	5
	2	10	4	5	4	5	3	3	5
	3	5	4	5	4	5	3	3	5
	4	10	4	5	4	5	3	3	5
	5	4	4	5	4	5	3	3	5
7	1	7	4	4	5	5	5	5	5
	2	10	4	4	5	5	5	5	5
	3	7	4	4	5	5	5	5	5
	4	8	4	4	5	5	5	5	5
	5	3	4	4	5	5	5	5	5
8	1	4	5	4	3	3	4	3	2
	2	10	5	4	3	3	4	3	2
	3	7	5	4	3	3	4	3	2
	4	9	5	4	3	3	4	3	2
	5	6	5	4	3	3	4	3	2
9	1	3	3	3	3	1	2	2	3
	2	6	3	3	3	1	2	2	3
	3	6	3	3	3	1	2	2	3
	4	10	3	3	3	1	2	2	3
	5	6	3	3	3	1	2	2	3
10	1	2	3	2	2	2	2	1	4
	2	1	3	2	2	2	2	1	4
	3	6	3	2	2	2	2	1	4
	4	1	3	2	2	2	2	1	4
	5	7	3	2	2	2	2	1	4
11	1	0	0	0	0	0	0	0	0
20	18	17	17	17	26	61
